instances/knapsack/knapsack_interdiction/knapsack_20_1_2.kp
42
20
3157

85 8.0 185 25.97
463 46.0 563 108.1
465 46.0 565 57.45
248 25.0 348 69.17
919 92.0 1019 173.65
305 30.0 405 73.06
32 3.0 132 23.8
557 56.0 657 78.93
569 57.0 669 121.72
451 45.0 551 91.08
895 90.0 995 114.17
634 63.0 734 136.62
426 43.0 526 75.75
691 69.0 791 136.15
65 6.0 165 17.88
333 33.0 433 72.72
506 51.0 606 60.92
728 73.0 828 88.08
567 57.0 667 73.73
532 53.0 632 66.09

42
[994]

[[18, 28, 29, 22, 22, 15, 15, 14, 26, 19, 35, 27, 28, 8, 1, 10, 1, 31, 11, 19]]

[[664, 686, 244, 55, 986, 496, 315, 860, 308, 722, 482, 521, 157, 858, 604, 964, 277, 87, 994, 339]]
